(set-logic HORN)
(set-info :source |
    Benchmark: Horn constraint system (6 clauses, 5 relation symbols)
    Generated by Eldarica (http://lara.epfl.ch/w/eldarica)
    Output by Princess (http://www.philipp.ruemmer.org/princess.shtml)
|)
(set-info :status sat)
(declare-fun predr6_2 (Int Int Int Int Int Int Int Int) Bool)
(declare-fun predr5_3 (Int Int Int Int Int Int Int Int) Bool)
(declare-fun predr2_1 (Int Int Int Int) Bool)
(declare-fun predr2_4 (Int Int Int Int) Bool)
(declare-fun predr0_5 (Int Int Int Int Int Int Int Int) Bool)
(assert (forall ((var0 Int)) (forall ((var1 Int)) (forall ((var2 Int)) (forall ((var3 Int)) (not (and (and (not (= 0 (+ var2 (* (- 1) var1 ) ) ) ) (<= 0 var2 ) ) (predr2_1 var3 var2 var1 var0 ) ) ) ) ) ) ) )
(assert (forall ((var0 Int)) (forall ((var1 Int)) (forall ((var2 Int)) (forall ((var3 Int)) (forall ((var4 Int)) (forall ((var5 Int)) (forall ((var6 Int)) (forall ((var7 Int)) (not (and (predr6_2 var7 var6 var5 var4 var3 var2 var1 var0 ) (not (predr2_1 var7 var5 (+ var2 var0 ) var1 ) ) ) ) ) ) ) ) ) ) ) ) )
(assert (forall ((var0 Int)) (forall ((var1 Int)) (forall ((var2 Int)) (forall ((var3 Int)) (forall ((var4 Int)) (forall ((var5 Int)) (forall ((var6 Int)) (forall ((var7 Int)) (forall ((var8 Int)) (forall ((var9 Int)) (forall ((var10 Int)) (forall ((var11 Int)) (not (and (and (<= 0 (+ (* (- 2) var10 ) var1 ) ) (<= 0 (+ (+ (* 2 var10 ) (* (- 1) var1 ) ) 1 ) ) ) (and (and (predr2_4 var11 var10 var9 var8 ) (predr5_3 var7 var6 var5 var4 var3 var2 var1 var0 ) ) (not (predr6_2 var7 var6 var5 var4 var3 var9 var1 var0 ) ) ) ) ) ) ) ) ) ) ) ) ) ) ) ) ) )
(assert (forall ((var0 Int)) (forall ((var1 Int)) (forall ((var2 Int)) (forall ((var3 Int)) (forall ((var4 Int)) (forall ((var5 Int)) (forall ((var6 Int)) (forall ((var7 Int)) (forall ((var8 Int)) (forall ((var9 Int)) (forall ((var10 Int)) (forall ((var11 Int)) (not (and (and (and (<= 0 (+ (+ (* (- 2) var10 ) var1 ) (* 2 1 ) ) ) (<= 0 (+ (+ (* 2 var10 ) (* (- 1) var1 ) ) (* (- 1) 1 ) ) ) ) (<= 0 (+ var1 (* (- 2) 1 ) ) ) ) (and (and (predr0_5 var7 var6 var5 var4 var3 var2 var1 var0 ) (predr2_4 var11 var10 var9 var8 ) ) (not (predr5_3 var7 var6 var5 var4 var3 var2 var1 var9 ) ) ) ) ) ) ) ) ) ) ) ) ) ) ) ) ) )
(assert (forall ((var0 Int)) (forall ((var1 Int)) (forall ((var2 Int)) (forall ((var3 Int)) (forall ((var4 Int)) (forall ((var5 Int)) (forall ((var6 Int)) (not (and (predr0_5 var6 var5 var4 var3 var2 var1 1 var0 ) (not (predr2_4 var6 var4 1 1 ) ) ) ) ) ) ) ) ) ) ) )
(assert (forall ((var0 Int)) (forall ((var1 Int)) (forall ((var2 Int)) (forall ((var3 Int)) (forall ((var4 Int)) (forall ((var5 Int)) (not (and (<= 0 var1 ) (not (predr0_5 var3 var5 var1 var4 var3 var2 var1 var0 ) ) ) ) ) ) ) ) ) ) )
(check-sat)
